NAME : C101.25
COMMENT : (Solomon 1987, Min no of trucks: 3, Optimal value: 191.3)
TYPE : CVRPTW
BEST_KNOWN: 191.3
DIMENSION : 26
EDGE_WEIGHT_TYPE : EUC_2D
CAPACITY : 200
SERVICE_TIME : 90
NODE_COORD_SECTION
1 40 50
2 45 68
3 45 70
4 42 66
5 42 68
6 42 65
7 40 69
8 40 66
9 38 68
10 38 70
11 35 66
12 35 69
13 25 85
14 22 75
15 22 85
16 20 80
17 20 85
19 18 75
19 15 75
20 15 80
21 30 50
22 30 52
23 28 52
24 28 55
25 25 50
26 25 52
DEMAND_SECTION
1 0
2 10
3 30
4 10
5 10
6 10
7 20
8 20
9 20
10 10
11 10
12 10
13 20
14 30
15 10
16 40
17 40
18 20
19 20
20 10
21 10
22 20
23 20
24 10
25 10
26 40
TIME_WINDOW_SECTION
1 0 1236
2 912 967
3 825 870
4 65 146
5 727 782
6 15 67
7 621 702
8 170 225
9 255 324
10 534 605
11 357 410
12 448 505
13 652 721
14 30 92
15 567 620
16 384 429
17 475 528
18 99 148
19 179 254
20 278 345
21 10 73
22 914 965
23 812 883
24 732 777
25 65 144
26 169 224
